55212
50, 24, 20, 35, 5, 37, 7, 40, 51, 13, 43, 3, 6, 28, 55, 26, 49, 53, 34, 54, 47, 30, 18, 4, 12, 9, 14, 2, 45, 11, 25, 31, 1, 27, 33, 42, 52, 15, 36, 46, 39, 16, 10, 22, 29, 23, 21, 17, 48, 19, 32, 41, 8, 44, 38
